Solver command line: ['/usr/local/bin/gurobi.sh']

Set parameter Username
Academic license - for non-commercial use only - expires 2025-07-11
Read LP format model from file C:\Users\PAULWI~1\AppData\Local\Temp\tmpd7cyn5hy.pyomo.lp
Reading time = 0.14 seconds
objective: 17978 rows, 16799 columns, 40808 nonzeros
Set parameter TimeLimit to value 1000
Set parameter MIPGap to value 0.08
Gurobi Optimizer version 12.0.1 build v12.0.1rc0 (mac64[rosetta2] - Darwin 24.3.0 24D70)

CPU model: Apple M3
Thread count: 8 physical cores, 8 logical processors, using up to 8 threads

Non-default parameters:
TimeLimit  1000
MIPGap  0.08

Optimize a model with 17978 rows, 16799 columns and 40808 nonzeros
Model fingerprint: 0xb6bbb61e
Model has 167 quadratic constraints
Variable types: 14448 continuous, 2351 integer (2016 binary)
Coefficient statistics:
  Matrix range     [6e-03, 1e+03]
  QMatrix range    [1e+00, 1e+00]
  Objective range  [4e+01, 3e+02]
  Bounds range     [1e+00, 3e+00]
  RHS range        [4e-04, 1e+04]
Presolve removed 16137 rows and 14285 columns
Presolve time: 0.06s
Presolved: 1841 rows, 2514 columns, 6863 nonzeros
Variable types: 2013 continuous, 501 integer (501 binary)
Found heuristic solution: objective -1175873.406

Root relaxation: objective -1.496248e+06, 1126 iterations, 0.02 seconds (0.02 work units)

    Nodes    |    Current Node    |     Objective Bounds      |     Work
 Expl Unexpl |  Obj  Depth IntInf | Incumbent    BestBd   Gap | It/Node Time

     0     0 -1496248.4    0    7 -469317.79 -1496248.4   219%     -    0s
H    0     0                    -1491598.759 -1496248.4  0.31%     -    0s

Explored 1 nodes (1126 simplex iterations) in 0.23 seconds (0.09 work units)
Thread count was 4 (of 4 available processors)

Solution count 2: -2.17104e+06 -1.17587e+06 

Optimal solution found (tolerance 8.00e-02)
Best objective -2.171038017648e+06, best bound -2.182759022257e+06, gap 0.5399%

